* ENCODING=ISO-8859-1
NAME          CPLEX
ROWS
 N  obj1    
 G  c1      
 G  c2      
 G  c3      
 G  c4      
 G  c5      
 G  c6      
 G  c7      
 G  c8      
 G  c9      
 G  c10     
 G  c11     
 G  c12     
 G  c13     
 G  c14     
 G  c15     
 G  c16     
 G  c17     
 G  c18     
 G  c19     
 G  c20     
 G  c21     
 G  c22     
 G  c23     
 G  c24     
 G  c25     
COLUMNS
    MARK0000  'MARKER'                 'INTORG'
    x1        obj1                            1
    x1        c8                            982
    x1        c21                           530
    x2        obj1                            1
    x2        c4                            420
    x2        c14                           160
    x3        obj1                            1
    x3        c11                           383
    x4        obj1                            1
    x4        c22                           226
    x5        obj1                            1
    x5        c1                            957
    x5        c8                            313
    x5        c25                           112
    x6        obj1                            1
    x6        c4                            750
    x6        c10                           322
    x6        c12                           544
    x6        c20                           239
    x6        c24                           876
    x7        obj1                            1
    x7        c3                            312
    x8        obj1                            1
    x8        c8                            497
    x8        c18                           837
    x8        c24                           362
    x9        obj1                            1
    x9        c22                           873
    x10       obj1                            1
    x10       c8                            864
    x10       c13                           220
    x10       c21                           310
    x11       obj1                            1
    x11       c22                           501
    x11       c24                           991
    x12       obj1                            1
    x12       c1                            153
    x12       c4                            832
    x12       c8                            467
    x13       obj1                            1
    x13       c9                            563
    x13       c25                           688
    x14       obj1                            1
    x14       c4                            983
    x14       c9                            357
    x14       c14                           915
    x15       obj1                            1
    x15       c23                           317
    x16       obj1                            1
    x16       c2                            474
    x16       c5                            893
    x16       c16                           149
    x16       c23                           506
    x17       obj1                            1
    x17       c3                            476
    x17       c12                           796
    x18       obj1                            1
    x18       c17                           129
    x18       c18                           741
    x18       c19                           452
    x18       c23                           615
    x19       obj1                            1
    x19       c2                            416
    x19       c3                            912
    x19       c5                            516
    x19       c16                           981
    x19       c19                           466
    x20       obj1                            1
    x20       c10                           340
    x20       c23                           688
    x21       obj1                            1
    x21       c25                           366
    x22       obj1                            1
    x22       c4                            498
    x22       c5                            158
    x22       c11                           756
    x22       c14                           462
    x22       c21                           562
    x23       obj1                            1
    x23       c4                            264
    x24       obj1                            1
    x24       c18                           891
    x25       obj1                            1
    x25       c6                            925
    x25       c11                           554
    x25       c25                           277
    x26       obj1                            1
    x27       obj1                            1
    x28       obj1                            1
    x28       c3                            277
    x28       c7                            437
    x28       c18                           440
    x28       c20                           170
    x29       obj1                            1
    x29       c11                           620
    x29       c12                           770
    x29       c21                           500
    x30       obj1                            1
    x30       c3                            261
    x30       c5                            717
    x30       c10                           380
    x30       c14                           845
    x30       c15                           397
    x31       obj1                            1
    x31       c18                           962
    x32       obj1                            1
    x32       c1                            319
    x32       c3                            199
    x32       c5                            767
    x32       c11                           675
    x32       c15                           447
    x33       obj1                            1
    x33       c4                            579
    x33       c17                           438
    x34       obj1                            1
    x34       c1                            554
    x34       c2                            472
    x34       c7                            602
    x34       c21                           972
    x35       obj1                            1
    x35       c21                           307
    x36       obj1                            1
    x36       c8                            160
    x36       c13                           835
    x36       c21                           496
    x37       obj1                            1
    x38       obj1                            1
    x38       c1                            621
    x38       c6                            499
    x39       obj1                            1
    x39       c9                            710
    x39       c19                           969
    x40       obj1                            1
    x40       c12                           170
    x40       c16                           472
    x40       c23                           823
    x41       obj1                            1
    x41       c7                            818
    x41       c11                           432
    x41       c12                           488
    x41       c16                           172
    x41       c20                           318
    x42       obj1                            1
    x42       c5                            424
    x42       c6                            967
    x42       c14                           840
    x43       obj1                            1
    x43       c1                            824
    x43       c17                           594
    x44       obj1                            1
    x44       c1                            453
    x44       c6                            953
    x44       c24                           770
    x45       obj1                            1
    x45       c20                           209
    x45       c25                           638
    x46       obj1                            1
    x46       c2                            608
    x46       c5                            753
    x46       c8                            382
    x46       c15                           711
    x46       c16                           440
    x46       c17                           190
    x46       c25                           445
    x47       obj1                            1
    x47       c23                           113
    x48       obj1                            1
    x48       c13                           118
    x48       c16                           872
    x48       c19                           893
    x48       c20                           340
    x48       c25                           166
    x49       obj1                            1
    x49       c2                            636
    x49       c11                           358
    x49       c14                           333
    x49       c17                           330
    x49       c22                           510
    x50       obj1                            1
    x50       c2                            380
    x50       c13                           491
    x50       c19                           745
    x50       c20                           826
    MARK0001  'MARKER'                 'INTEND'
RHS
    rhs       c1                           1941
    rhs       c2                           1493
    rhs       c3                           1219
    rhs       c4                           2163
    rhs       c5                           2114
    rhs       c6                           1672
    rhs       c7                            929
    rhs       c8                           1833
    rhs       c9                            815
    rhs       c10                           521
    rhs       c11                          1889
    rhs       c12                          1384
    rhs       c13                           832
    rhs       c14                          1778
    rhs       c15                           778
    rhs       c16                          1543
    rhs       c17                           841
    rhs       c18                          1936
    rhs       c19                          1763
    rhs       c20                          1051
    rhs       c21                          1839
    rhs       c22                          1055
    rhs       c23                          1531
    rhs       c24                          1500
    rhs       c25                          1346
BOUNDS
 LI bnd       x1        0
 LI bnd       x2        0
 LI bnd       x3        0
 LI bnd       x4        0
 LI bnd       x5        0
 LI bnd       x6        0
 LI bnd       x7        0
 LI bnd       x8        0
 LI bnd       x9        0
 LI bnd       x10       0
 LI bnd       x11       0
 LI bnd       x12       0
 LI bnd       x13       0
 LI bnd       x14       0
 LI bnd       x15       0
 LI bnd       x16       0
 LI bnd       x17       0
 LI bnd       x18       0
 LI bnd       x19       0
 LI bnd       x20       0
 LI bnd       x21       0
 LI bnd       x22       0
 LI bnd       x23       0
 LI bnd       x24       0
 LI bnd       x25       0
 LI bnd       x26       0
 LI bnd       x27       0
 LI bnd       x28       0
 LI bnd       x29       0
 LI bnd       x30       0
 LI bnd       x31       0
 LI bnd       x32       0
 LI bnd       x33       0
 LI bnd       x34       0
 LI bnd       x35       0
 LI bnd       x36       0
 LI bnd       x37       0
 LI bnd       x38       0
 LI bnd       x39       0
 LI bnd       x40       0
 LI bnd       x41       0
 LI bnd       x42       0
 LI bnd       x43       0
 LI bnd       x44       0
 LI bnd       x45       0
 LI bnd       x46       0
 LI bnd       x47       0
 LI bnd       x48       0
 LI bnd       x49       0
 LI bnd       x50       0
ENDATA
